\ENCODING=ISO-8859-1
\Problem name: IloCplex

Minimize
 obj1: 138 x1 - 128 x2 - 75 x3 + 77 x4 + 139 x5 - 129 x6 - 75 x7 + 77 x8
       + 143 x9 - 133 x10 - 75 x11 + 77 x12 + 149 x13 - 139 x14 - 75 x15
       + 77 x16 + 150 x17 - 140 x18 - 75 x19 + 77 x20 + 152 x21 - 142 x22
       - 75 x23 + 77 x24 + 155 x25 - 145 x26 - 75 x27 + 77 x28 + 158 x29
       - 148 x30 - 75 x31 + 77 x32 + 160 x33 - 150 x34 - 80 x35 + 83 x36
       + 154 x37 - 144 x38 - 80 x39 + 83 x40 + 153 x41 - 143 x42 - 80 x43
       + 83 x44 + 153 x45 - 143 x46 - 80 x47 + 83 x48 + 152 x49 - 142 x50
       - 80 x51 + 83 x52 + 150 x53 - 140 x54 - 80 x55 + 83 x56 + 149 x57
       - 139 x58 - 80 x59 + 83 x60 + 149 x61 - 139 x62 - 80 x63 + 83 x64
       + 154 x65 - 144 x66 - 80 x67 + 83 x68 + 156 x69 - 146 x70 - 80 x71
       + 83 x72 + 163 x73 - 153 x74 - 78 x75 + 78 x76 + 164 x77 - 154 x78
       - 78 x79 + 78 x80 + 164 x81 - 154 x82 - 78 x83 + 78 x84 + 160 x85
       - 150 x86 - 78 x87 + 78 x88 + 150 x89 - 140 x90 - 78 x91 + 78 x92
       + 148 x93 - 138 x94 - 78 x95 + 78 x96 + 138 x97 - 128 x98 - 75 x99
       + 77 x100 + 139 x101 - 129 x102 - 75 x103 + 77 x104 + 143 x105
       - 133 x106 - 75 x107 + 77 x108 + 149 x109 - 139 x110 - 75 x111 + 77 x112
       + 150 x113 - 140 x114 - 75 x115 + 77 x116 + 152 x117 - 142 x118
       - 75 x119 + 77 x120 + 155 x121 - 145 x122 - 75 x123 + 77 x124 + 158 x125
       - 148 x126 - 75 x127 + 77 x128 + 160 x129 - 150 x130 - 80 x131 + 83 x132
       + 154 x133 - 144 x134 - 80 x135 + 83 x136 + 153 x137 - 143 x138
       - 80 x139 + 83 x140 + 153 x141 - 143 x142 - 80 x143 + 83 x144 + 152 x145
       - 142 x146 - 80 x147 + 83 x148 + 150 x149 - 140 x150 - 80 x151 + 83 x152
       + 149 x153 - 139 x154 - 80 x155 + 83 x156 + 149 x157 - 139 x158
       - 80 x159 + 83 x160 + 154 x161 - 144 x162 - 80 x163 + 83 x164 + 156 x165
       - 146 x166 - 80 x167 + 83 x168 + 163 x169 - 153 x170 - 78 x171 + 78 x172
       + 164 x173 - 154 x174 - 78 x175 + 78 x176 + 164 x177 - 154 x178
       - 78 x179 + 78 x180 + 160 x181 - 150 x182 - 78 x183 + 78 x184 + 150 x185
       - 140 x186 - 78 x187 + 78 x188 + 148 x189 - 138 x190 - 78 x191 + 78 x192
       + 138 x193 - 128 x194 - 75 x195 + 77 x196 + 139 x197 - 129 x198
       - 75 x199 + 77 x200 + 143 x201 - 133 x202 - 75 x203 + 77 x204 + 149 x205
       - 139 x206 - 75 x207 + 77 x208 + 150 x209 - 140 x210 - 75 x211 + 77 x212
       + 152 x213 - 142 x214 - 75 x215 + 77 x216 + 155 x217 - 145 x218
       - 75 x219 + 77 x220 + 158 x221 - 148 x222 - 75 x223 + 77 x224 + 160 x225
       - 150 x226 - 80 x227 + 83 x228 + 154 x229 - 144 x230 - 80 x231 + 83 x232
       + 153 x233 - 143 x234 - 80 x235 + 83 x236 + 153 x237 - 143 x238
       - 80 x239 + 83 x240 + 152 x241 - 142 x242 - 80 x243 + 83 x244 + 150 x245
       - 140 x246 - 80 x247 + 83 x248 + 149 x249 - 139 x250 - 80 x251 + 83 x252
       + 149 x253 - 139 x254 - 80 x255 + 83 x256 + 154 x257 - 144 x258
       - 80 x259 + 83 x260 + 156 x261 - 146 x262 - 80 x263 + 83 x264 + 163 x265
       - 153 x266 - 78 x267 + 78 x268 + 164 x269 - 154 x270 - 78 x271 + 78 x272
       + 164 x273 - 154 x274 - 78 x275 + 78 x276 + 160 x277 - 150 x278
       - 78 x279 + 78 x280 + 150 x281 - 140 x282 - 78 x283 + 78 x284 + 148 x285
       - 138 x286 - 78 x287 + 78 x288
Subject To
 c1:   x289  = 0
 c2:   x290  = 0
 c3:   x291  = 0
 c4:   x292  = 0
 c5:   x293  = 0
 c6:   x294  = 0
 c7:   x295  = 0
 c8:   x296  = 0
 c9:   x297  = 0
 c10:  x298  = 0
 c11:  x299  = 0
 c12:  x300  = 0
 c13:  x301  = 0
 c14:  x302  = 0
 c15:  x303  = 0
 c16:  x304  = 0
 c17:  x305  = 0
 c18:  x306  = 0
 c19:  x307  = 0
 c20:  x308  = 0
 c21:  x309  = 0
 c22:  x310  = 0
 c23:  x311  = 0
 c24:  x312  = 0
 c25:  x313  = 0
 c26:  x314  = 0
 c27:  x315  = 0
 c28:  x316  = 0
 c29:  x317  = 0
 c30:  x318  = 0
 c31:  x319  = 0
 c32:  x320  = 0
 c33:  x321  = 0
 c34:  x322  = 0
 c35:  x323  = 0
 c36:  x324  = 0
 c37:  x325  = 0
 c38:  x326  = 0
 c39:  x327  = 0
 c40:  x328  = 0
 c41:  x329  = 0
 c42:  x330  = 0
 c43:  x331  = 0
 c44:  x332  = 0
 c45:  x333  = 0
 c46:  x334  = 0
 c47:  x335  = 0
 c48:  x336  = 0
 c49:  x337  = 0
 c50:  x338  = 0
 c51:  x339  = 0
 c52:  x340  = 0
 c53:  x341  = 0
 c54:  x342  = 0
 c55:  x343  = 0
 c56:  x344  = 0
 c57:  x345  = 0
 c58:  x346  = 0
 c59:  x347  = 0
 c60:  x348  = 0
 c61:  x349  = 0
 c62:  x350  = 0
 c63:  x351  = 0
 c64:  x352  = 0
 c65:  x353  = 0
 c66:  x354  = 0
 c67:  x355  = 0
 c68:  x356  = 0
 c69:  x357  = 0
 c70:  x358  = 0
 c71:  x359  = 0
 c72:  x360  = 0
 c73:  x361  = 0
 c74:  x362  = 0
 c75:  x363  = 0
 c76:  x364  = 0
 c77:  x365  = 0
 c78:  x366  = 0
 c79:  x367  = 0
 c80:  x368  = 0
 c81:  x369  = 0
 c82:  x370  = 0
 c83:  x371  = 0
 c84:  x372  = 0
 c85:  x373  = 0
 c86:  x374  = 0
 c87:  x375  = 0
 c88:  x376  = 0
 c89:  x377  = 0
 c90:  x378  = 0
 c91:  x379  = 0
 c92:  x380  = 0
 c93:  x381  = 0
 c94:  x382  = 0
 c95:  x383  = 0
 c96:  x384  = 0
 c97:  x385  = 0
 c98:  x386  = 0
 c99:  x387  = 0
 c100: x388  = 0
 c101: x389  = 0
 c102: x390  = 0
 c103: x391  = 0
 c104: x392  = 0
 c105: x393  = 0
 c106: x394  = 0
 c107: x395  = 0
 c108: x396  = 0
 c109: x397  = 0
 c110: x398  = 0
 c111: x399  = 0
 c112: x400  = 0
 c113: x401  = 0
 c114: x402  = 0
 c115: x403  = 0
 c116: x404  = 0
 c117: x405  = 0
 c118: x406  = 0
 c119: x407  = 0
 c120: x408  = 0
 c121: x409  = 0
 c122: x410  = 0
 c123: x411  = 0
 c124: x412  = 0
 c125: x413  = 0
 c126: x414  = 0
 c127: x415  = 0
 c128: x416  = 0
 c129: x417  = 0
 c130: x418  = 0
 c131: x419  = 0
 c132: x420  = 0
 c133: x421  = 0
 c134: x422  = 0
 c135: x423  = 0
 c136: x424  = 0
 c137: x425  = 0
 c138: x426  = 0
 c139: x427  = 0
 c140: x428  = 0
 c141: x429  = 0
 c142: x430  = 0
 c143: x431  = 0
 c144: x432  = 0
 c145: x433  = 0
 c146: x434  = 0
 c147: x435  = 0
 c148: x436  = 0
 c149: x437  = 0
 c150: x438  = 0
 c151: x439  = 0
 c152: x440  = 0
 c153: x441  = 0
 c154: x442  = 0
 c155: x443  = 0
 c156: x444  = 0
 c157: x445  = 0
 c158: x446  = 0
 c159: x447  = 0
 c160: x448  = 0
 c161: x449  = 0
 c162: x450  = 0
 c163: x451  = 0
 c164: x452  = 0
 c165: x453  = 0
 c166: x454  = 0
 c167: x455  = 0
 c168: x456  = 0
 c169: x457  = 0
 c170: x458  = 0
 c171: x459  = 0
 c172: x460  = 0
 c173: x461  = 0
 c174: x462  = 0
 c175: x463  = 0
 c176: x464  = 0
 c177: x465  = 0
 c178: x466  = 0
 c179: x467  = 0
 c180: x468  = 0
 c181: x469  = 0
 c182: x470  = 0
 c183: x471  = 0
 c184: x472  = 0
 c185: x473  = 0
 c186: x474  = 0
 c187: x475  = 0
 c188: x476  = 0
 c189: x477  = 0
 c190: x478  = 0
 c191: x479  = 0
 c192: x480  = 0
 c193: x481  = 0
 c194: x482  = 0
 c195: x483  = 0
 c196: x484  = 0
 c197: x485  = 0
 c198: x486  = 0
 c199: x487  = 0
 c200: x488  = 0
 c201: x489  = 0
 c202: x490  = 0
 c203: x491  = 0
 c204: x492  = 0
 c205: x493  = 0
 c206: x494  = 0
 c207: x495  = 0
 c208: x496  = 0
 c209: x497  = 0
 c210: x498  = 0
 c211: x499  = 0
 c212: x500  = 0
 c213: x501  = 0
 c214: x502  = 0
 c215: x503  = 0
 c216: x504  = 0
 c217: x505  = 0
 c218: x506  = 0
 c219: x507  = 0
 c220: x508  = 0
 c221: x509  = 0
 c222: x510  = 0
 c223: x511  = 0
 c224: x512  = 0
 c225: x513  = 0
 c226: x514  = 0
 c227: x515  = 0
 c228: x516  = 0
 c229: x517  = 0
 c230: x518  = 0
 c231: x519  = 0
 c232: x520  = 0
 c233: x521  = 0
 c234: x522  = 0
 c235: x523  = 0
 c236: x524  = 0
 c237: x525  = 0
 c238: x526  = 0
 c239: x527  = 0
 c240: x528  = 0
 c241: x529  = 0
 c242: x530  = 0
 c243: x531  = 0
 c244: x532  = 0
 c245: x533  = 0
 c246: x534  = 0
 c247: x535  = 0
 c248: x536  = 0
 c249: x537  = 0
 c250: x538  = 0
 c251: x539  = 0
 c252: x540  = 0
 c253: x541  = 0
 c254: x542  = 0
 c255: x543  = 0
 c256: x544  = 0
 c257: x545  = 0
 c258: x546  = 0
 c259: x547  = 0
 c260: x548  = 0
 c261: x549  = 0
 c262: x550  = 0
 c263: x551  = 0
 c264: x552  = 0
 c265: x553  = 0
 c266: x554  = 0
 c267: x555  = 0
 c268: x556  = 0
 c269: x557  = 0
 c270: x558  = 0
 c271: x559  = 0
 c272: x560  = 0
 c273: x561  = 0
 c274: x562  = 0
 c275: x563  = 0
 c276: x564  = 0
 c277: x565  = 0
 c278: x566  = 0
 c279: x567  = 0
 c280: x568  = 0
 c281: x569  = 0
 c282: x570  = 0
 c283: x571  = 0
 c284: x572  = 0
 c285: x573  = 0
 c286: x574  = 0
 c287: x575  = 0
 c288: x576  = 0
 c289: x577 + x578 + x579 + x580 + x581 + x582 + x583 + x584 + x585 + x586
       + x587 + x588 + x589 + x590 + x591 + x592 + x593 + x594 + x595 + x596
       + x597 + x598 + x599 + x600 + x601 + x602 + x603 + x604 + x605 + x606
       + x607 + x608 + x609 + x610 + x611 + x612 + x613 + x614 + x615 + x616
       + x617 + x618 + x619 + x620 + x621 + x622 + x623 + x624 + x625 + x626
       + x627 + x628 + x629 + x630 + x631 + x632 + x633 + x634 + x635 + x636
       + x637 + x638 + x639 + x640 + x641 + x642 + x643 + x644 + x645 + x646
       + x647 + x648 + x649 + x650 + x651 + x652 + x653 + x654 + x655 + x656
       + x657 + x658 + x659 + x660 + x661 + x662 + x663 + x664 + x665 + x666
       + x667 + x668 + x669 + x670 + x671 + x672 + x673 + x674 + x675 + x676
       + x677 + x678 + x679 + x680 + x681 + x682 + x683 + x684 + x685 + x686
       + x687 + x688 + x689 + x690 + x691 + x692 + x693 + x694 + x695 + x696
       + x697 + x698 + x699 + x700 + x701 + x702 + x703 + x704 + x705 + x706
       + x707 + x708 + x709 + x710 + x711 + x712 + x713 + x714 + x715 + x716
       + x717 + x718 + x719 + x720 - x721 - x722 - x723 - x724 - x725 - x726
       - x727 - x728 - x729 - x730 - x731 - x732 - x733 - x734 - x735 - x736
       - x737 - x738 - x739 - x740 - x741 - x742 - x743 - x744 - x745 - x746
       - x747 - x748 - x749 - x750 - x751 - x752 - x753 - x754 - x755 - x756
       - x757 - x758 - x759 - x760 - x761 - x762 - x763 - x764 - x765 - x766
       - x767 - x768 - x769 - x770 - x771 - x772 - x773 - x774 - x775 - x776
       - x777 - x778 - x779 - x780 - x781 - x782 - x783 - x784 - x785 - x786
       - x787 - x788 - x789 - x790 - x791 - x792 - x793 - x794 - x795 - x796
       - x797 - x798 - x799 - x800 - x801 - x802 - x803 - x804 - x805 - x806
       - x807 - x808 - x809 - x810 - x811 - x812 - x813 - x814 - x815 - x816
       - x817 - x818 - x819 - x820 - x821 - x822 - x823 - x824 - x825 - x826
       - x827 - x828 - x829 - x830 - x831 - x832 - x833 - x834 - x835 - x836
       - x837 - x838 - x839 - x840 - x841 - x842 - x843 - x844 - x845 - x846
       - x847 - x848 - x849 - x850 - x851 - x852 - x853 - x854 - x855 - x856
       - x857 - x858 - x859 - x860 - x861 - x862 - x863 - x864  = 0
 c290: x865 + x866 + x867 + x868 + x869 + x870 + x871 + x872 + x873 + x874
       + x875 + x876 + x877 + x878 + x879 + x880 + x881 + x882 + x883 + x884
       + x885 + x886 + x887 + x888 + x889 + x890 + x891 + x892 + x893 + x894
       + x895 + x896 + x897 + x898 + x899 + x900 + x901 + x902 + x903 + x904
       + x905 + x906 + x907 + x908 + x909 + x910 + x911 + x912 + x913 + x914
       + x915 + x916 + x917 + x918 + x919 + x920 + x921 + x922 + x923 + x924
       + x925 + x926 + x927 + x928 + x929 + x930 + x931 + x932 + x933 + x934
       + x935 + x936 + x937 + x938 + x939 + x940 + x941 + x942 + x943 + x944
       + x945 + x946 + x947 + x948 + x949 + x950 + x951 + x952 + x953 + x954
       + x955 + x956 + x957 + x958 + x959 + x960 + x961 + x962 + x963 + x964
       + x965 + x966 + x967 + x968 + x969 + x970 + x971 + x972 + x973 + x974
       + x975 + x976 + x977 + x978 + x979 + x980 + x981 + x982 + x983 + x984
       + x985 + x986 + x987 + x988 + x989 + x990 + x991 + x992 + x993 + x994
       + x995 + x996 + x997 + x998 + x999 + x1000 + x1001 + x1002 + x1003
       + x1004 + x1005 + x1006 + x1007 + x1008 - x1009 - x1010 - x1011 - x1012
       - x1013 - x1014 - x1015 - x1016 - x1017 - x1018 - x1019 - x1020 - x1021
       - x1022 - x1023 - x1024 - x1025 - x1026 - x1027 - x1028 - x1029 - x1030
       - x1031 - x1032 - x1033 - x1034 - x1035 - x1036 - x1037 - x1038 - x1039
       - x1040 - x1041 - x1042 - x1043 - x1044 - x1045 - x1046 - x1047 - x1048
       - x1049 - x1050 - x1051 - x1052 - x1053 - x1054 - x1055 - x1056 - x1057
       - x1058 - x1059 - x1060 - x1061 - x1062 - x1063 - x1064 - x1065 - x1066
       - x1067 - x1068 - x1069 - x1070 - x1071 - x1072 - x1073 - x1074 - x1075
       - x1076 - x1077 - x1078 - x1079 - x1080 - x1081 - x1082 - x1083 - x1084
       - x1085 - x1086 - x1087 - x1088 - x1089 - x1090 - x1091 - x1092 - x1093
       - x1094 - x1095 - x1096 - x1097 - x1098 - x1099 - x1100 - x1101 - x1102
       - x1103 - x1104 - x1105 - x1106 - x1107 - x1108 - x1109 - x1110 - x1111
       - x1112 - x1113 - x1114 - x1115 - x1116 - x1117 - x1118 - x1119 - x1120
       - x1121 - x1122 - x1123 - x1124 - x1125 - x1126 - x1127 - x1128 - x1129
       - x1130 - x1131 - x1132 - x1133 - x1134 - x1135 - x1136 - x1137 - x1138
       - x1139 - x1140 - x1141 - x1142 - x1143 - x1144 - x1145 - x1146 - x1147
       - x1148 - x1149 - x1150 - x1151 - x1152  = 0
 c291: x2 + x289 + x577 + x601  = 0
 c292: x3 + x291 + x865 + x889  = 0
 c293: x1 + x290 + x721 + x745  = 0
 c294: x4 + x292 + x1009 + x1033  = 95
 c295: x290 + x721 + x745  = 0
 c296: x292 + x1009 + x1033  = 0
 c297: x98 + x385 + x625 + x649  = 0
 c298: x99 + x387 + x913 + x937  = 0
 c299: x97 + x386 + x769 + x793  = 0
 c300: x100 + x388 + x1057 + x1081  = 95
 c301: x386 + x769 + x793  = 0
 c302: x388 + x1057 + x1081  = 0
 c303: x194 + x481 + x673 + x697  = 0
 c304: x195 + x483 + x961 + x985  = 0
 c305: x193 + x482 + x817 + x841  = 0
 c306: x196 + x484 + x1105 + x1129  = 95
 c307: x482 + x817 + x841  = 0
 c308: x484 + x1105 + x1129  = 0
 c309: x6 + x293 + x578 + x602  = 0
 c310: x7 + x295 + x866 + x890  = 0
 c311: x5 + x294 + x722 + x746  = 0
 c312: x8 + x296 + x1010 + x1034  = 90
 c313: x294 + x722 + x746  = 0
 c314: x296 + x1010 + x1034  = 0
 c315: x102 + x389 + x626 + x650  = 0
 c316: x103 + x391 + x914 + x938  = 0
 c317: x101 + x390 + x770 + x794  = 0
 c318: x104 + x392 + x1058 + x1082  = 90
 c319: x390 + x770 + x794  = 0
 c320: x392 + x1058 + x1082  = 0
 c321: x198 + x485 + x674 + x698  = 0
 c322: x199 + x487 + x962 + x986  = 0
 c323: x197 + x486 + x818 + x842  = 0
 c324: x200 + x488 + x1106 + x1130  = 90
 c325: x486 + x818 + x842  = 0
 c326: x488 + x1106 + x1130  = 0
 c327: x10 + x297 + x579 + x603  = 0
 c328: x11 + x299 + x867 + x891  = 0
 c329: x9 + x298 + x723 + x747  = 0
 c330: x12 + x300 + x1011 + x1035  = 62
 c331: x298 + x723 + x747  = 0
 c332: x300 + x1011 + x1035  = 0
 c333: x106 + x393 + x627 + x651  = 0
 c334: x107 + x395 + x915 + x939  = 0
 c335: x105 + x394 + x771 + x795  = 0
 c336: x108 + x396 + x1059 + x1083  = 62
 c337: x394 + x771 + x795  = 0
 c338: x396 + x1059 + x1083  = 0
 c339: x202 + x489 + x675 + x699  = 0
 c340: x203 + x491 + x963 + x987  = 0
 c341: x201 + x490 + x819 + x843  = 0
 c342: x204 + x492 + x1107 + x1131  = 62
 c343: x490 + x819 + x843  = 0
 c344: x492 + x1107 + x1131  = 0
 c345: x14 + x301 + x580 + x604  = 88
 c346: x15 + x303 + x868 + x892  = 0
 c347: x13 + x302 + x724 + x748  = 0
 c348: x16 + x304 + x1012 + x1036  = 85
 c349: x302 + x724 + x748  = 0
 c350: x304 + x1012 + x1036  = 0
 c351: x110 + x397 + x628 + x652  = 88
 c352: x111 + x399 + x916 + x940  = 0
 c353: x109 + x398 + x772 + x796  = 0
 c354: x112 + x400 + x1060 + x1084  = 85
 c355: x398 + x772 + x796  = 0
 c356: x400 + x1060 + x1084  = 0
 c357: x206 + x493 + x676 + x700  = 88
 c358: x207 + x495 + x964 + x988  = 0
 c359: x205 + x494 + x820 + x844  = 0
 c360: x208 + x496 + x1108 + x1132  = 85
 c361: x494 + x820 + x844  = 0
 c362: x496 + x1108 + x1132  = 0
 c363: x18 + x305 + x581 + x605  = 142
 c364: x19 + x307 + x869 + x893  = 0
 c365: x17 + x306 + x725 + x749  = 0
 c366: x20 + x308 + x1013 + x1037  = 114
 c367: x306 + x725 + x749  = 0
 c368: x308 + x1013 + x1037  = 0
 c369: x114 + x401 + x629 + x653  = 142
 c370: x115 + x403 + x917 + x941  = 0
 c371: x113 + x402 + x773 + x797  = 0
 c372: x116 + x404 + x1061 + x1085  = 114
 c373: x402 + x773 + x797  = 0
 c374: x404 + x1061 + x1085  = 0
 c375: x210 + x497 + x677 + x701  = 142
 c376: x211 + x499 + x965 + x989  = 0
 c377: x209 + x498 + x821 + x845  = 0
 c378: x212 + x500 + x1109 + x1133  = 114
 c379: x498 + x821 + x845  = 0
 c380: x500 + x1109 + x1133  = 0
 c381: x22 + x309 + x582 + x606  = 149
 c382: x23 + x311 + x870 + x894  = 0
 c383: x21 + x310 + x726 + x750  = 0
 c384: x24 + x312 + x1014 + x1038  = 141
 c385: x310 + x726 + x750  = 0
 c386: x312 + x1014 + x1038  = 0
 c387: x118 + x405 + x630 + x654  = 149
 c388: x119 + x407 + x918 + x942  = 0
 c389: x117 + x406 + x774 + x798  = 0
 c390: x120 + x408 + x1062 + x1086  = 141
 c391: x406 + x774 + x798  = 0
 c392: x408 + x1062 + x1086  = 0
 c393: x214 + x501 + x678 + x702  = 149
 c394: x215 + x503 + x966 + x990  = 0
 c395: x213 + x502 + x822 + x846  = 0
 c396: x216 + x504 + x1110 + x1134  = 141
 c397: x502 + x822 + x846  = 0
 c398: x504 + x1110 + x1134  = 0
 c399: x26 + x313 + x583 + x607  = 69
 c400: x27 + x315 + x871 + x895  = 0
 c401: x25 + x314 + x727 + x751  = 0
 c402: x28 + x316 + x1015 + x1039  = 181
 c403: x314 + x727 + x751  = 0
 c404: x316 + x1015 + x1039  = 0
 c405: x122 + x409 + x631 + x655  = 69
 c406: x123 + x411 + x919 + x943  = 0
 c407: x121 + x410 + x775 + x799  = 0
 c408: x124 + x412 + x1063 + x1087  = 181
 c409: x410 + x775 + x799  = 0
 c410: x412 + x1063 + x1087  = 0
 c411: x218 + x505 + x679 + x703  = 69
 c412: x219 + x507 + x967 + x991  = 0
 c413: x217 + x506 + x823 + x847  = 0
 c414: x220 + x508 + x1111 + x1135  = 181
 c415: x506 + x823 + x847  = 0
 c416: x508 + x1111 + x1135  = 0
 c417: x30 + x317 + x584 + x608  = 89
 c418: x31 + x319 + x872 + x896  = 0
 c419: x29 + x318 + x728 + x752  = 0
 c420: x32 + x320 + x1016 + x1040  = 166
 c421: x318 + x728 + x752  = 0
 c422: x320 + x1016 + x1040  = 0
 c423: x126 + x413 + x632 + x656  = 89
 c424: x127 + x415 + x920 + x944  = 0
 c425: x125 + x414 + x776 + x800  = 0
 c426: x128 + x416 + x1064 + x1088  = 166
 c427: x414 + x776 + x800  = 0
 c428: x416 + x1064 + x1088  = 0
 c429: x222 + x509 + x680 + x704  = 89
 c430: x223 + x511 + x968 + x992  = 0
 c431: x221 + x510 + x824 + x848  = 0
 c432: x224 + x512 + x1112 + x1136  = 166
 c433: x510 + x824 + x848  = 0
 c434: x512 + x1112 + x1136  = 0
 c435: x34 + x321 + x585 + x609  = 83
 c436: x35 + x323 + x873 + x897  = 0
 c437: x33 + x322 + x729 + x753  = 0
 c438: x36 + x324 + x1017 + x1041  = 88
 c439: x322 + x729 + x753  = 0
 c440: x324 + x1017 + x1041  = 0
 c441: x130 + x417 + x633 + x657  = 83
 c442: x131 + x419 + x921 + x945  = 0
 c443: x129 + x418 + x777 + x801  = 0
 c444: x132 + x420 + x1065 + x1089  = 88
 c445: x418 + x777 + x801  = 0
 c446: x420 + x1065 + x1089  = 0
 c447: x226 + x513 + x681 + x705  = 83
 c448: x227 + x515 + x969 + x993  = 0
 c449: x225 + x514 + x825 + x849  = 0
 c450: x228 + x516 + x1113 + x1137  = 88
 c451: x514 + x825 + x849  = 0
 c452: x516 + x1113 + x1137  = 0
 c453: x38 + x325 + x586 + x610  = 75
 c454: x39 + x327 + x874 + x898  = 0
 c455: x37 + x326 + x730 + x754  = 0
 c456: x40 + x328 + x1018 + x1042  = 106
 c457: x326 + x730 + x754  = 0
 c458: x328 + x1018 + x1042  = 0
 c459: x134 + x421 + x634 + x658  = 75
 c460: x135 + x423 + x922 + x946  = 0
 c461: x133 + x422 + x778 + x802  = 0
 c462: x136 + x424 + x1066 + x1090  = 106
 c463: x422 + x778 + x802  = 0
 c464: x424 + x1066 + x1090  = 0
 c465: x230 + x517 + x682 + x706  = 75
 c466: x231 + x519 + x970 + x994  = 0
 c467: x229 + x518 + x826 + x850  = 0
 c468: x232 + x520 + x1114 + x1138  = 106
 c469: x518 + x826 + x850  = 0
 c470: x520 + x1114 + x1138  = 0
 c471: x42 + x329 + x587 + x611  = 63
 c472: x43 + x331 + x875 + x899  = 0
 c473: x41 + x330 + x731 + x755  = 0
 c474: x44 + x332 + x1019 + x1043  = 126
 c475: x330 + x731 + x755  = 0
 c476: x332 + x1019 + x1043  = 0
 c477: x138 + x425 + x635 + x659  = 63
 c478: x139 + x427 + x923 + x947  = 0
 c479: x137 + x426 + x779 + x803  = 0
 c480: x140 + x428 + x1067 + x1091  = 126
 c481: x426 + x779 + x803  = 0
 c482: x428 + x1067 + x1091  = 0
 c483: x234 + x521 + x683 + x707  = 63
 c484: x235 + x523 + x971 + x995  = 0
 c485: x233 + x522 + x827 + x851  = 0
 c486: x236 + x524 + x1115 + x1139  = 126
 c487: x522 + x827 + x851  = 0
 c488: x524 + x1115 + x1139  = 0
 c489: x46 + x333 + x588 + x612  = 49
 c490: x47 + x335 + x876 + x900  = 0
 c491: x45 + x334 + x732 + x756  = 0
 c492: x48 + x336 + x1020 + x1044  = 144
 c493: x334 + x732 + x756  = 0
 c494: x336 + x1020 + x1044  = 0
 c495: x142 + x429 + x636 + x660  = 49
 c496: x143 + x431 + x924 + x948  = 0
 c497: x141 + x430 + x780 + x804  = 0
 c498: x144 + x432 + x1068 + x1092  = 144
 c499: x430 + x780 + x804  = 0
 c500: x432 + x1068 + x1092  = 0
 c501: x238 + x525 + x684 + x708  = 49
 c502: x239 + x527 + x972 + x996  = 0
 c503: x237 + x526 + x828 + x852  = 0
 c504: x240 + x528 + x1116 + x1140  = 144
 c505: x526 + x828 + x852  = 0
 c506: x528 + x1116 + x1140  = 0
 c507: x50 + x337 + x589 + x613  = 92
 c508: x51 + x339 + x877 + x901  = 0
 c509: x49 + x338 + x733 + x757  = 0
 c510: x52 + x340 + x1021 + x1045  = 138
 c511: x338 + x733 + x757  = 0
 c512: x340 + x1021 + x1045  = 0
 c513: x146 + x433 + x637 + x661  = 92
 c514: x147 + x435 + x925 + x949  = 0
 c515: x145 + x434 + x781 + x805  = 0
 c516: x148 + x436 + x1069 + x1093  = 138
 c517: x434 + x781 + x805  = 0
 c518: x436 + x1069 + x1093  = 0
 c519: x242 + x529 + x685 + x709  = 92
 c520: x243 + x531 + x973 + x997  = 0
 c521: x241 + x530 + x829 + x853  = 0
 c522: x244 + x532 + x1117 + x1141  = 138
 c523: x530 + x829 + x853  = 0
 c524: x532 + x1117 + x1141  = 0
 c525: x54 + x341 + x590 + x614  = 114
 c526: x55 + x343 + x878 + x902  = 0
 c527: x53 + x342 + x734 + x758  = 0
 c528: x56 + x344 + x1022 + x1046  = 115
 c529: x342 + x734 + x758  = 0
 c530: x344 + x1022 + x1046  = 0
 c531: x150 + x437 + x638 + x662  = 114
 c532: x151 + x439 + x926 + x950  = 0
 c533: x149 + x438 + x782 + x806  = 0
 c534: x152 + x440 + x1070 + x1094  = 115
 c535: x438 + x782 + x806  = 0
 c536: x440 + x1070 + x1094  = 0
 c537: x246 + x533 + x686 + x710  = 114
 c538: x247 + x535 + x974 + x998  = 0
 c539: x245 + x534 + x830 + x854  = 0
 c540: x248 + x536 + x1118 + x1142  = 115
 c541: x534 + x830 + x854  = 0
 c542: x536 + x1118 + x1142  = 0
 c543: x58 + x345 + x591 + x615  = 40
 c544: x59 + x347 + x879 + x903  = 0
 c545: x57 + x346 + x735 + x759  = 0
 c546: x60 + x348 + x1023 + x1047  = 89
 c547: x346 + x735 + x759  = 0
 c548: x348 + x1023 + x1047  = 0
 c549: x154 + x441 + x639 + x663  = 40
 c550: x155 + x443 + x927 + x951  = 0
 c551: x153 + x442 + x783 + x807  = 0
 c552: x156 + x444 + x1071 + x1095  = 89
 c553: x442 + x783 + x807  = 0
 c554: x444 + x1071 + x1095  = 0
 c555: x250 + x537 + x687 + x711  = 40
 c556: x251 + x539 + x975 + x999  = 0
 c557: x249 + x538 + x831 + x855  = 0
 c558: x252 + x540 + x1119 + x1143  = 89
 c559: x538 + x831 + x855  = 0
 c560: x540 + x1119 + x1143  = 0
 c561: x62 + x349 + x592 + x616  = 85
 c562: x63 + x351 + x880 + x904  = 0
 c563: x61 + x350 + x736 + x760  = 0
 c564: x64 + x352 + x1024 + x1048  = 66
 c565: x350 + x736 + x760  = 0
 c566: x352 + x1024 + x1048  = 0
 c567: x158 + x445 + x640 + x664  = 85
 c568: x159 + x447 + x928 + x952  = 0
 c569: x157 + x446 + x784 + x808  = 0
 c570: x160 + x448 + x1072 + x1096  = 66
 c571: x446 + x784 + x808  = 0
 c572: x448 + x1072 + x1096  = 0
 c573: x254 + x541 + x688 + x712  = 85
 c574: x255 + x543 + x976 + x1000  = 0
 c575: x253 + x542 + x832 + x856  = 0
 c576: x256 + x544 + x1120 + x1144  = 66
 c577: x542 + x832 + x856  = 0
 c578: x544 + x1120 + x1144  = 0
 c579: x66 + x353 + x593 + x617  = 187
 c580: x67 + x355 + x881 + x905  = 0
 c581: x65 + x354 + x737 + x761  = 0
 c582: x68 + x356 + x1025 + x1049  = 57
 c583: x354 + x737 + x761  = 0
 c584: x356 + x1025 + x1049  = 0
 c585: x162 + x449 + x641 + x665  = 187
 c586: x163 + x451 + x929 + x953  = 0
 c587: x161 + x450 + x785 + x809  = 0
 c588: x164 + x452 + x1073 + x1097  = 57
 c589: x450 + x785 + x809  = 0
 c590: x452 + x1073 + x1097  = 0
 c591: x258 + x545 + x689 + x713  = 187
 c592: x259 + x547 + x977 + x1001  = 0
 c593: x257 + x546 + x833 + x857  = 0
 c594: x260 + x548 + x1121 + x1145  = 57
 c595: x546 + x833 + x857  = 0
 c596: x548 + x1121 + x1145  = 0
 c597: x70 + x357 + x594 + x618  = 160
 c598: x71 + x359 + x882 + x906  = 0
 c599: x69 + x358 + x738 + x762  = 0
 c600: x72 + x360 + x1026 + x1050  = 32
 c601: x358 + x738 + x762  = 0
 c602: x360 + x1026 + x1050  = 0
 c603: x166 + x453 + x642 + x666  = 160
 c604: x167 + x455 + x930 + x954  = 0
 c605: x165 + x454 + x786 + x810  = 0
 c606: x168 + x456 + x1074 + x1098  = 32
 c607: x454 + x786 + x810  = 0
 c608: x456 + x1074 + x1098  = 0
 c609: x262 + x549 + x690 + x714  = 160
 c610: x263 + x551 + x978 + x1002  = 0
 c611: x261 + x550 + x834 + x858  = 0
 c612: x264 + x552 + x1122 + x1146  = 32
 c613: x550 + x834 + x858  = 0
 c614: x552 + x1122 + x1146  = 0
 c615: x74 + x361 + x595 + x619  = 99
 c616: x75 + x363 + x883 + x907  = 0
 c617: x73 + x362 + x739 + x763  = 0
 c618: x76 + x364 + x1027 + x1051  = 201
 c619: x362 + x739 + x763  = 0
 c620: x364 + x1027 + x1051  = 0
 c621: x170 + x457 + x643 + x667  = 99
 c622: x171 + x459 + x931 + x955  = 0
 c623: x169 + x458 + x787 + x811  = 0
 c624: x172 + x460 + x1075 + x1099  = 201
 c625: x458 + x787 + x811  = 0
 c626: x460 + x1075 + x1099  = 0
 c627: x266 + x553 + x691 + x715  = 99
 c628: x267 + x555 + x979 + x1003  = 0
 c629: x265 + x554 + x835 + x859  = 0
 c630: x268 + x556 + x1123 + x1147  = 201
 c631: x554 + x835 + x859  = 0
 c632: x556 + x1123 + x1147  = 0
 c633: x78 + x365 + x596 + x620  = 90
 c634: x79 + x367 + x884 + x908  = 0
 c635: x77 + x366 + x740 + x764  = 0
 c636: x80 + x368 + x1028 + x1052  = 224
 c637: x366 + x740 + x764  = 0
 c638: x368 + x1028 + x1052  = 0
 c639: x174 + x461 + x644 + x668  = 90
 c640: x175 + x463 + x932 + x956  = 0
 c641: x173 + x462 + x788 + x812  = 0
 c642: x176 + x464 + x1076 + x1100  = 224
 c643: x462 + x788 + x812  = 0
 c644: x464 + x1076 + x1100  = 0
 c645: x270 + x557 + x692 + x716  = 90
 c646: x271 + x559 + x980 + x1004  = 0
 c647: x269 + x558 + x836 + x860  = 0
 c648: x272 + x560 + x1124 + x1148  = 224
 c649: x558 + x836 + x860  = 0
 c650: x560 + x1124 + x1148  = 0
 c651: x82 + x369 + x597 + x621  = 114
 c652: x83 + x371 + x885 + x909  = 0
 c653: x81 + x370 + x741 + x765  = 0
 c654: x84 + x372 + x1029 + x1053  = 201
 c655: x370 + x741 + x765  = 0
 c656: x372 + x1029 + x1053  = 0
 c657: x178 + x465 + x645 + x669  = 114
 c658: x179 + x467 + x933 + x957  = 0
 c659: x177 + x466 + x789 + x813  = 0
 c660: x180 + x468 + x1077 + x1101  = 201
 c661: x466 + x789 + x813  = 0
 c662: x468 + x1077 + x1101  = 0
 c663: x274 + x561 + x693 + x717  = 114
 c664: x275 + x563 + x981 + x1005  = 0
 c665: x273 + x562 + x837 + x861  = 0
 c666: x276 + x564 + x1125 + x1149  = 201
 c667: x562 + x837 + x861  = 0
 c668: x564 + x1125 + x1149  = 0
 c669: x86 + x373 + x598 + x622  = 0
 c670: x87 + x375 + x886 + x910  = 0
 c671: x85 + x374 + x742 + x766  = 0
 c672: x88 + x376 + x1030 + x1054  = 202
 c673: x374 + x742 + x766  = 0
 c674: x376 + x1030 + x1054  = 0
 c675: x182 + x469 + x646 + x670  = 0
 c676: x183 + x471 + x934 + x958  = 0
 c677: x181 + x470 + x790 + x814  = 0
 c678: x184 + x472 + x1078 + x1102  = 202
 c679: x470 + x790 + x814  = 0
 c680: x472 + x1078 + x1102  = 0
 c681: x278 + x565 + x694 + x718  = 0
 c682: x279 + x567 + x982 + x1006  = 0
 c683: x277 + x566 + x838 + x862  = 0
 c684: x280 + x568 + x1126 + x1150  = 202
 c685: x566 + x838 + x862  = 0
 c686: x568 + x1126 + x1150  = 0
 c687: x90 + x377 + x599 + x623  = 0
 c688: x91 + x379 + x887 + x911  = 0
 c689: x89 + x378 + x743 + x767  = 0
 c690: x92 + x380 + x1031 + x1055  = 157
 c691: x378 + x743 + x767  = 0
 c692: x380 + x1031 + x1055  = 0
 c693: x186 + x473 + x647 + x671  = 0
 c694: x187 + x475 + x935 + x959  = 0
 c695: x185 + x474 + x791 + x815  = 0
 c696: x188 + x476 + x1079 + x1103  = 157
 c697: x474 + x791 + x815  = 0
 c698: x476 + x1079 + x1103  = 0
 c699: x282 + x569 + x695 + x719  = 0
 c700: x283 + x571 + x983 + x1007  = 0
 c701: x281 + x570 + x839 + x863  = 0
 c702: x284 + x572 + x1127 + x1151  = 157
 c703: x570 + x839 + x863  = 0
 c704: x572 + x1127 + x1151  = 0
 c705: x94 + x381 + x600 + x624  = 10
 c706: x95 + x383 + x888 + x912  = 0
 c707: x93 + x382 + x744 + x768  = 0
 c708: x96 + x384 + x1032 + x1056  = 170
 c709: x382 + x744 + x768  = 0
 c710: x384 + x1032 + x1056  = 0
 c711: x190 + x477 + x648 + x672  = 10
 c712: x191 + x479 + x936 + x960  = 0
 c713: x189 + x478 + x792 + x816  = 0
 c714: x192 + x480 + x1080 + x1104  = 170
 c715: x478 + x792 + x816  = 0
 c716: x480 + x1080 + x1104  = 0
 c717: x286 + x573 + x696 + x720  = 10
 c718: x287 + x575 + x984 + x1008  = 0
 c719: x285 + x574 + x840 + x864  = 0
 c720: x288 + x576 + x1128 + x1152  = 170
 c721: x574 + x840 + x864  = 0
 c722: x576 + x1128 + x1152  = 0
End
